RLT03
Position Depot: Random
Horizon for Depot: Large
Position of customers: Random
Distribution of the demand: Small
Width of time windows: Tight
Distribution of the service: Small

VEHICLE 
NUMBER 	 CAPACITY 
 7 	 	 102 
 
CUSTOMER
CUST NO. 	 XCOORD.  	 YCOORD. 	 DEMAND 	 READY TIME 	 DUE DATE 	 SERVICE TIME 
 0 	 	 745 	 	 559 	 	 0 	 	 0 	 	 2964 	 	 0 
  1 	 	 724 	 	 585 	 	 6 	 	 1669 	 	 1742 	 	 97 
  2 	 	 148 	 	 935 	 	 8 	 	 618 	 	 776 	 	 96 
  3 	 	 570 	 	 223 	 	 6 	 	 223 	 	 416 	 	 93 
  4 	 	 632 	 	 115 	 	 5 	 	 369 	 	 503 	 	 57 
  5 	 	 693 	 	 596 	 	 9 	 	 2562 	 	 2707 	 	 76 
  6 	 	 699 	 	 404 	 	 5 	 	 1612 	 	 1777 	 	 69 
  7 	 	 761 	 	 797 	 	 8 	 	 1728 	 	 1879 	 	 89 
  8 	 	 557 	 	 622 	 	 6 	 	 1786 	 	 1958 	 	 74 
  9 	 	 882 	 	 108 	 	 7 	 	 1093 	 	 1179 	 	 66 
  10 	 	 674 	 	 44 	 	 5 	 	 651 	 	 710 	 	 50 
  11 	 	 902 	 	 334 	 	 7 	 	 210 	 	 301 	 	 76 
  12 	 	 449 	 	 633 	 	 5 	 	 1671 	 	 1861 	 	 86 
  13 	 	 411 	 	 125 	 	 10 	 	 1586 	 	 1650 	 	 51 
  14 	 	 139 	 	 245 	 	 9 	 	 1915 	 	 2064 	 	 70 
  15 	 	 131 	 	 295 	 	 9 	 	 540 	 	 735 	 	 86 
  16 	 	 875 	 	 143 	 	 9 	 	 534 	 	 621 	 	 87 
  17 	 	 242 	 	 743 	 	 6 	 	 485 	 	 589 	 	 81 
  18 	 	 572 	 	 993 	 	 8 	 	 1405 	 	 1575 	 	 90 
  19 	 	 438 	 	 543 	 	 5 	 	 1664 	 	 1775 	 	 95 
  20 	 	 388 	 	 848 	 	 7 	 	 2507 	 	 2563 	 	 99 
  21 	 	 538 	 	 873 	 	 7 	 	 354 	 	 535 	 	 99 
  22 	 	 853 	 	 838 	 	 6 	 	 1697 	 	 1812 	 	 58 
  23 	 	 904 	 	 533 	 	 8 	 	 2230 	 	 2420 	 	 73 
  24 	 	 257 	 	 918 	 	 5 	 	 527 	 	 666 	 	 75 
  25 	 	 452 	 	 373 	 	 8 	 	 2679 	 	 2858 	 	 78 
  26 	 	 511 	 	 385 	 	 9 	 	 258 	 	 320 	 	 81 
  27 	 	 869 	 	 330 	 	 6 	 	 394 	 	 449 	 	 72 
  28 	 	 78 	 	 732 	 	 6 	 	 2750 	 	 2921 	 	 57 
  29 	 	 236 	 	 148 	 	 8 	 	 627 	 	 719 	 	 90 
  30 	 	 285 	 	 774 	 	 8 	 	 2769 	 	 2912 	 	 61 
  31 	 	 238 	 	 44 	 	 7 	 	 2575 	 	 2738 	 	 84 
  32 	 	 567 	 	 927 	 	 8 	 	 2377 	 	 2499 	 	 65 
  33 	 	 11 	 	 311 	 	 8 	 	 752 	 	 852 	 	 62 
  34 	 	 185 	 	 313 	 	 5 	 	 1004 	 	 1097 	 	 75 
  35 	 	 642 	 	 816 	 	 9 	 	 1190 	 	 1286 	 	 79 
  36 	 	 911 	 	 957 	 	 8 	 	 2750 	 	 2823 	 	 100 
  37 	 	 365 	 	 618 	 	 7 	 	 919 	 	 969 	 	 100 
  38 	 	 852 	 	 553 	 	 9 	 	 590 	 	 756 	 	 89 
  39 	 	 128 	 	 965 	 	 7 	 	 1539 	 	 1627 	 	 71 
  40 	 	 351 	 	 256 	 	 5 	 	 538 	 	 636 	 	 66 
  41 	 	 218 	 	 641 	 	 5 	 	 527 	 	 586 	 	 79 
  42 	 	 291 	 	 227 	 	 9 	 	 2591 	 	 2669 	 	 97 
  43 	 	 79 	 	 618 	 	 6 	 	 783 	 	 878 	 	 51 
  44 	 	 446 	 	 160 	 	 6 	 	 1736 	 	 1868 	 	 53 
  45 	 	 457 	 	 633 	 	 9 	 	 1402 	 	 1525 	 	 87 
  46 	 	 130 	 	 994 	 	 9 	 	 2431 	 	 2614 	 	 53 
  47 	 	 249 	 	 116 	 	 8 	 	 1959 	 	 2067 	 	 82 
  48 	 	 324 	 	 962 	 	 5 	 	 2682 	 	 2810 	 	 59 
  49 	 	 272 	 	 655 	 	 8 	 	 1045 	 	 1124 	 	 51 
  50 	 	 978 	 	 4 	 	 7 	 	 2006 	 	 2103 	 	 53 
  51 	 	 335 	 	 162 	 	 5 	 	 570 	 	 627 	 	 66 
  52 	 	 253 	 	 31 	 	 10 	 	 1106 	 	 1279 	 	 96 
  53 	 	 739 	 	 612 	 	 10 	 	 1977 	 	 2113 	 	 87 
  54 	 	 91 	 	 204 	 	 6 	 	 1402 	 	 1474 	 	 100 
  55 	 	 378 	 	 147 	 	 7 	 	 710 	 	 878 	 	 74 
  56 	 	 458 	 	 355 	 	 9 	 	 2369 	 	 2439 	 	 65 
  57 	 	 238 	 	 97 	 	 6 	 	 625 	 	 754 	 	 83 
  58 	 	 378 	 	 83 	 	 5 	 	 2333 	 	 2475 	 	 65 
  59 	 	 569 	 	 290 	 	 10 	 	 1227 	 	 1308 	 	 60 
  60 	 	 732 	 	 416 	 	 6 	 	 1858 	 	 1942 	 	 99 
  61 	 	 201 	 	 855 	 	 5 	 	 1743 	 	 1811 	 	 74 
  62 	 	 157 	 	 584 	 	 6 	 	 1176 	 	 1291 	 	 88 
  63 	 	 523 	 	 742 	 	 9 	 	 1887 	 	 2035 	 	 57 
  64 	 	 111 	 	 911 	 	 10 	 	 1389 	 	 1555 	 	 80 
  65 	 	 674 	 	 919 	 	 8 	 	 769 	 	 969 	 	 71 
  66 	 	 153 	 	 642 	 	 7 	 	 1281 	 	 1381 	 	 88 
  67 	 	 46 	 	 948 	 	 10 	 	 1589 	 	 1707 	 	 70 
  68 	 	 827 	 	 110 	 	 10 	 	 492 	 	 594 	 	 73 
  69 	 	 481 	 	 646 	 	 7 	 	 2279 	 	 2340 	 	 53 
  70 	 	 726 	 	 469 	 	 6 	 	 1771 	 	 1948 	 	 82 
  71 	 	 772 	 	 218 	 	 7 	 	 1009 	 	 1098 	 	 68 
  72 	 	 121 	 	 995 	 	 7 	 	 846 	 	 983 	 	 70 
  73 	 	 201 	 	 777 	 	 5 	 	 1650 	 	 1754 	 	 76 
  74 	 	 798 	 	 136 	 	 9 	 	 2140 	 	 2212 	 	 74 
  75 	 	 29 	 	 395 	 	 6 	 	 1544 	 	 1682 	 	 89 
  76 	 	 779 	 	 528 	 	 8 	 	 2422 	 	 2509 	 	 96 
  77 	 	 672 	 	 95 	 	 10 	 	 2088 	 	 2197 	 	 98 
  78 	 	 987 	 	 204 	 	 8 	 	 1864 	 	 2010 	 	 99 
  79 	 	 731 	 	 325 	 	 7 	 	 2257 	 	 2309 	 	 83 
  80 	 	 772 	 	 536 	 	 10 	 	 1039 	 	 1095 	 	 74 
  81 	 	 758 	 	 534 	 	 8 	 	 545 	 	 638 	 	 89 
  82 	 	 265 	 	 101 	 	 8 	 	 557 	 	 729 	 	 75 
  83 	 	 935 	 	 54 	 	 8 	 	 399 	 	 593 	 	 55 
  84 	 	 227 	 	 924 	 	 7 	 	 1511 	 	 1648 	 	 72 
  85 	 	 730 	 	 681 	 	 7 	 	 912 	 	 1066 	 	 58 
  86 	 	 770 	 	 226 	 	 10 	 	 1611 	 	 1672 	 	 65 
  87 	 	 192 	 	 581 	 	 6 	 	 2255 	 	 2391 	 	 61 
  88 	 	 960 	 	 111 	 	 6 	 	 1690 	 	 1753 	 	 82 
  89 	 	 340 	 	 883 	 	 9 	 	 2822 	 	 2964 	 	 72 
  90 	 	 675 	 	 724 	 	 8 	 	 863 	 	 1002 	 	 99 
  91 	 	 389 	 	 73 	 	 6 	 	 1875 	 	 1957 	 	 72 
  92 	 	 641 	 	 981 	 	 7 	 	 310 	 	 478 	 	 82 
  93 	 	 819 	 	 977 	 	 8 	 	 1487 	 	 1604 	 	 54 
  94 	 	 468 	 	 478 	 	 10 	 	 551 	 	 668 	 	 95 
  95 	 	 966 	 	 711 	 	 5 	 	 2090 	 	 2232 	 	 77 
  96 	 	 947 	 	 242 	 	 7 	 	 2795 	 	 2964 	 	 71 
  97 	 	 451 	 	 532 	 	 5 	 	 536 	 	 647 	 	 100 
  98 	 	 708 	 	 101 	 	 6 	 	 1044 	 	 1187 	 	 64 
  99 	 	 865 	 	 578 	 	 6 	 	 1750 	 	 1891 	 	 73 
  100 	 	 854 	 	 715 	 	 5 	 	 2830 	 	 2926 	 	 74 
 